\* Drama *\
Minimize
glowny_problem: m
Subject To
funkcja_1: - m + 2 x + 3 y + 4 z <= -5
funkcja_2: - m + 3 x - 4 y + 3 z <= -10
funkcja_3: - m + 10 x <= 7
Bounds
m free
x <= 10
-5 <= y <= 10
z <= 10
End
